49 49
62 42
56 37
61 33
58 27
59 15
51 21
48 28
52 33
52 41
58 48
57 58
62 63
63 69
52 64
43 67
37 69
27 68
31 62
17 63
5 64
8 52
12 42
7 38
5 25
10 17
5 6
13 13
21 10
39 10
46 10
36 16
30 15
32 22
27 23
20 26
17 33
25 32
31 32
40 30
45 35
42 41
30 40
32 39
21 47
16 57
25 55
30 48
38 46
37 52
42 57
49 49
